p cnf 318 1388
1 -2 0
2 -1 0
3 -4 0
4 -3 0
5 -6 0
6 -5 0
7 -8 0
8 -7 0
9 -10 0
10 -9 0
11 -12 0
12 -11 0
13 -14 0
14 -13 0
15 -16 0
16 -15 0
17 -18 0
18 -17 0
19 -20 0
20 -19 0
21 -22 0
22 -21 0
23 -24 0
24 -23 0
25 -26 0
26 -25 0
27 -28 0
28 -27 0
29 -30 0
30 -29 0
31 -32 0
32 -31 0
33 -34 0
34 -33 0
35 -36 0
36 -35 0
37 -38 0
38 -37 0
39 -40 0
40 -39 0
41 -42 0
42 -41 0
43 -44 0
44 -43 0
45 -46 0
46 -45 0
47 -48 0
48 -47 0
49 -50 0
50 -49 0
51 -52 0
52 -51 0
53 -54 0
54 -53 0
55 -56 0
56 -55 0
57 -58 0
58 -57 0
59 -60 0
60 -59 0
61 -62 0
62 -61 0
63 -64 0
64 -63 0
65 -66 0
66 -65 0
67 -68 0
68 -67 0
69 -70 0
70 -69 0
71 -72 0
72 -71 0
73 -74 0
74 -73 0
75 -76 0
76 -75 0
77 -78 0
78 -77 0
79 -80 0
80 -79 0
81 -82 0
82 -81 0
83 -84 0
84 -83 0
85 -86 0
86 -85 0
87 -88 0
88 -87 0
89 -90 0
90 -89 0
91 -92 0
92 -91 0
93 -94 0
94 -93 0
95 -96 0
96 -95 0
97 -98 0
98 -97 0
99 -100 0
100 -99 0
101 -102 0
102 -101 0
103 -104 0
104 -103 0
105 -106 0
106 -105 0
107 -108 0
108 -107 0
109 -110 0
110 -109 0
111 -112 0
112 -111 0
113 -114 0
114 -113 0
115 -116 0
116 -115 0
117 -118 0
118 -117 0
119 -120 0
120 -119 0
121 -122 0
122 -121 0
123 -124 0
124 -123 0
125 -126 0
126 -125 0
127 -128 0
128 -127 0
129 -130 0
130 -129 0
131 -132 0
132 -131 0
133 -134 0
134 -133 0
135 -136 0
136 -135 0
137 -138 0
138 -137 0
139 -140 0
140 -139 0
141 -142 0
142 -141 0
-143 -11 13 0
-143 11 -13 0
-13 143 -11 0
11 143 13 0
-143 0
-144 117 -85 0
-117 85 -144 0
-117 144 -85 0
85 144 117 0
-79 -145 111 0
-145 79 -111 0
-79 145 -111 0
145 79 111 0
-146 -43 75 0
43 -146 -75 0
146 -43 -75 0
43 146 75 0
-45 77 -147 0
-77 45 -147 0
-45 -77 147 0
77 147 45 0
-148 135 -103 0
103 -148 -135 0
148 -135 -103 0
103 148 135 0
-107 139 -149 0
107 -139 -149 0
-107 -139 149 0
107 149 139 0
-150 -105 137 0
-150 -137 105 0
150 -105 -137 0
150 137 105 0
-101 133 -151 0
101 -133 -151 0
-101 -133 151 0
101 133 151 0
131 -152 -99 0
-152 -131 99 0
-131 -99 152 0
131 99 152 0
-153 121 -89 0
-153 89 -121 0
-89 153 -121 0
121 89 153 0
119 -154 -87 0
87 -154 -119 0
-119 154 -87 0
119 87 154 0
-21 -155 53 0
-53 -155 21 0
-53 -21 155 0
21 155 53 0
-156 51 -19 0
-156 -51 19 0
156 -51 -19 0
156 51 19 0
57 -25 -157 0
25 -57 -157 0
-25 -57 157 0
57 25 157 0
-23 -158 55 0
-55 23 -158 0
-55 -23 158 0
23 158 55 0
123 -91 -159 0
91 -159 -123 0
-91 159 -123 0
123 91 159 0
127 -95 -160 0
-127 95 -160 0
-127 -95 160 0
127 95 160 0
125 -93 -161 0
-125 93 -161 0
-125 -93 161 0
125 93 161 0
69 -37 -162 0
-69 37 -162 0
-69 -37 162 0
69 37 162 0
73 -41 -163 0
41 -73 -163 0
-41 -73 163 0
73 41 163 0
71 -39 -164 0
-71 39 -164 0
-71 -39 164 0
71 39 164 0
-97 129 -165 0
-129 97 -165 0
-97 -129 165 0
129 97 165 0
115 -83 -166 0
-115 83 -166 0
-115 -83 166 0
115 83 166 0
-81 113 -167 0
-113 81 -167 0
-81 -113 167 0
113 81 167 0
-17 49 -168 0
17 -49 -168 0
-17 -49 168 0
17 49 168 0
47 -15 -169 0
-47 15 -169 0
-15 -47 169 0
47 15 169 0
-109 141 -170 0
-141 109 -170 0
-141 -109 170 0
141 109 170 0
-27 59 -171 0
27 -59 -171 0
-27 -59 171 0
27 59 171 0
67 -35 -172 0
-67 35 -172 0
-35 -67 172 0
67 35 172 0
-33 65 -173 0
33 -65 -173 0
-33 -65 173 0
33 65 173 0
63 -31 -174 0
31 -63 -174 0
-31 -63 174 0
63 31 174 0
61 -29 -175 0
29 -61 -175 0
-61 -29 175 0
61 29 175 0
175 176 0
174 176 0
173 176 0
172 176 0
171 176 0
170 176 0
169 176 0
168 176 0
167 176 0
166 176 0
165 176 0
164 176 0
163 176 0
162 176 0
161 176 0
160 176 0
159 176 0
158 176 0
157 176 0
156 176 0
155 176 0
154 176 0
153 176 0
152 176 0
151 176 0
150 176 0
149 176 0
148 176 0
147 176 0
146 176 0
145 176 0
144 176 0
-153 -150 -156 -155 -146 -145 -148 -158 -154 -152 -144 -149 -160 -159 -161 -151 -157 -147 -162 -163 -164 -165 -166 -167 -168 -169 -170 -171 -172 -173 -174 -175 -176 0
81 177 0
83 177 0
79 177 0
87 177 0
85 177 0
-81 -83 -79 -87 -85 -177 0
89 -177 -178 0
-89 177 -178 0
178 -89 -177 0
89 177 178 0
-15 179 0
-17 179 0
-19 179 0
-21 179 0
-23 179 0
-25 179 0
-27 179 0
-29 179 0
-31 179 0
-33 179 0
-35 179 0
-37 179 0
-39 179 0
-41 179 0
-43 179 0
-45 179 0
15 17 19 21 23 25 27 29 31 33 35 37 39 41 43 45 -179 0
178 -179 -180 0
89 179 -180 0
-178 -179 180 0
-89 179 180 0
89 178 -180 0
-89 -178 180 0
121 -180 -181 0
-121 180 -181 0
181 -121 -180 0
121 180 181 0
-15 -17 182 0
-17 182 0
-15 182 0
17 15 -182 0
-15 -17 183 0
-17 183 0
-19 -182 183 0
-19 183 0
-15 183 0
17 19 15 -183 0
17 19 15 182 -183 0
-15 -17 184 0
-17 184 0
-21 184 0
-21 -183 184 0
-19 -182 184 0
-19 184 0
-15 184 0
17 21 19 15 -184 0
17 21 19 15 183 -184 0
17 21 19 15 182 -184 0
17 21 19 15 182 183 -184 0
23 -184 -185 0
-23 184 -185 0
185 -23 -184 0
23 184 185 0
1 186 0
179 186 0
-1 -179 -186 0
23 -186 -187 0
185 186 -187 0
-23 -186 187 0
-185 186 187 0
23 185 -187 0
-23 -185 187 0
55 -187 -188 0
-55 187 -188 0
188 -55 -187 0
55 187 188 0
81 189 0
83 189 0
79 189 0
85 189 0
-81 -83 -79 -85 -189 0
87 -189 -190 0
-87 189 -190 0
190 -87 -189 0
87 189 190 0
-179 190 -191 0
87 179 -191 0
-179 -190 191 0
-87 179 191 0
87 190 -191 0
-87 -190 191 0
119 -191 -192 0
-119 191 -192 0
192 -119 -191 0
119 191 192 0
23 193 0
184 193 0
-23 -184 -193 0
19 194 0
182 194 0
-19 -182 -194 0
21 195 0
183 195 0
-21 -183 -195 0
-15 -17 196 0
-17 196 0
-21 196 0
-23 196 0
-21 -183 196 0
-19 -182 196 0
-19 196 0
-15 196 0
-23 -184 196 0
17 21 23 19 15 -196 0
17 21 23 19 15 183 -196 0
17 21 23 19 15 182 -196 0
17 21 23 19 15 182 183 -196 0
17 21 23 19 15 184 -196 0
17 21 23 19 15 183 184 -196 0
17 21 23 19 15 182 184 -196 0
17 21 23 19 15 182 183 184 -196 0
-15 -17 197 0
-17 197 0
-25 -196 197 0
-21 197 0
-23 197 0
-25 197 0
-21 -183 197 0
-19 -182 197 0
-19 197 0
-15 197 0
193 197 0
17 21 23 25 19 15 -193 -197 0
17 21 23 25 19 15 -193 196 -197 0
17 21 23 25 19 15 183 -193 -197 0
17 21 23 25 19 15 183 -193 196 -197 0
17 21 23 25 19 15 182 -193 -197 0
17 21 23 25 19 15 182 -193 196 -197 0
17 21 23 25 19 15 182 183 -193 -197 0
17 21 23 25 19 15 182 183 -193 196 -197 0
-27 -197 198 0
-27 198 0
-15 -17 198 0
-17 198 0
-25 -196 198 0
-21 198 0
-23 198 0
-25 198 0
-21 -183 198 0
194 198 0
-19 198 0
-15 198 0
193 198 0
27 17 21 23 25 19 15 -193 -194 -198 0
27 17 21 23 25 19 15 -193 -194 197 -198 0
27 17 21 23 25 19 15 -193 -194 196 -198 0
27 17 21 23 25 19 15 -193 -194 196 197 -198 0
27 17 21 23 25 19 15 183 -193 -194 -198 0
27 17 21 23 25 19 15 183 -193 -194 197 -198 0
27 17 21 23 25 19 15 183 -193 -194 196 -198 0
27 17 21 23 25 19 15 183 -193 -194 196 197 -198 0
29 199 0
198 199 0
-29 -198 -199 0
-27 -197 200 0
-27 200 0
-29 200 0
-15 -17 200 0
-17 200 0
-25 -196 200 0
-21 200 0
-23 200 0
-25 200 0
-29 -198 200 0
195 200 0
194 200 0
-19 200 0
-15 200 0
193 200 0
27 29 17 21 23 25 19 15 -193 -194 -195 -200 0
27 29 17 21 23 25 19 15 -193 -194 -195 197 -200 0
27 29 17 21 23 25 19 15 -193 -194 -195 196 -200 0
27 29 17 21 23 25 19 15 -193 -194 -195 196 197 -200 0
27 29 17 21 23 25 19 15 -193 -194 -195 198 -200 0
27 29 17 21 23 25 19 15 -193 -194 -195 197 198 -200 0
27 29 17 21 23 25 19 15 -193 -194 -195 196 198 -200 0
27 29 17 21 23 25 19 15 -193 -194 -195 196 197 198 -200 0
-15 -17 201 0
-17 201 0
-21 201 0
-23 201 0
-21 -183 201 0
-19 -182 201 0
-19 201 0
-15 201 0
-23 -184 201 0
17 21 23 19 15 -201 0
17 21 23 19 15 183 -201 0
17 21 23 19 15 182 -201 0
17 21 23 19 15 182 183 -201 0
17 21 23 19 15 184 -201 0
17 21 23 19 15 183 184 -201 0
17 21 23 19 15 182 184 -201 0
17 21 23 19 15 182 183 184 -201 0
-15 -17 202 0
-17 202 0
-25 -201 202 0
-21 202 0
-23 202 0
-25 202 0
-21 -183 202 0
-19 -182 202 0
-19 202 0
-15 202 0
193 202 0
17 21 23 25 19 15 -193 -202 0
17 21 23 25 19 15 -193 201 -202 0
17 21 23 25 19 15 183 -193 -202 0
17 21 23 25 19 15 183 -193 201 -202 0
17 21 23 25 19 15 182 -193 -202 0
17 21 23 25 19 15 182 -193 201 -202 0
17 21 23 25 19 15 182 183 -193 -202 0
17 21 23 25 19 15 182 183 -193 201 -202 0
-27 -202 203 0
-27 203 0
-29 203 0
-15 -17 203 0
-17 203 0
-25 -201 203 0
-31 -200 203 0
-21 203 0
-23 203 0
-25 203 0
199 203 0
195 203 0
-31 203 0
194 203 0
-19 203 0
-15 203 0
193 203 0
27 29 17 21 23 25 31 19 15 -193 -194 -195 -199 -203 0
27 29 17 21 23 25 31 19 15 -193 -194 -195 -199 202 -203 0
27 29 17 21 23 25 31 19 15 -193 -194 -195 -199 201 -203 0
27 29 17 21 23 25 31 19 15 -193 -194 -195 -199 201 202 -203 0
27 29 17 21 23 25 31 19 15 -193 -194 -195 -199 200 -203 0
27 29 17 21 23 25 31 19 15 -193 -194 -195 -199 200 202 -203 0
27 29 17 21 23 25 31 19 15 -193 -194 -195 -199 200 201 -203 0
27 29 17 21 23 25 31 19 15 -193 -194 -195 -199 200 201 202 -203 0
33 -203 -204 0
-33 203 -204 0
204 -33 -203 0
33 203 204 0
33 -186 -205 0
186 204 -205 0
-33 -186 205 0
186 -204 205 0
33 204 -205 0
-33 -204 205 0
65 -205 -206 0
-65 205 -206 0
206 -65 -205 0
65 205 206 0
33 207 0
203 207 0
-33 -203 -207 0
31 208 0
200 208 0
-31 -200 -208 0
-27 -202 209 0
-33 209 0
-27 209 0
-29 209 0
-15 -17 209 0
-17 209 0
-25 -201 209 0
-31 -200 209 0
-21 209 0
-23 209 0
-25 209 0
199 209 0
195 209 0
-31 209 0
194 209 0
-19 209 0
-15 209 0
207 209 0
193 209 0
33 27 29 17 21 23 25 31 19 15 -193 -194 -195 -199 -207 -209 0
33 27 29 17 21 23 25 31 19 15 -193 -194 -195 -199 202 -207 -209 0
33 27 29 17 21 23 25 31 19 15 -193 -194 -195 -199 201 -207 -209 0
33 27 29 17 21 23 25 31 19 15 -193 -194 -195 -199 201 202 -207 -209 0
33 27 29 17 21 23 25 31 19 15 -193 -194 -195 -199 200 -207 -209 0
33 27 29 17 21 23 25 31 19 15 -193 -194 -195 -199 200 202 -207 -209 0
33 27 29 17 21 23 25 31 19 15 -193 -194 -195 -199 200 201 -207 -209 0
33 27 29 17 21 23 25 31 19 15 -193 -194 -195 -199 200 201 202 -207 -209 0
-27 -202 210 0
-33 210 0
-27 210 0
-29 210 0
-15 -17 210 0
-17 210 0
-35 -209 210 0
-25 -201 210 0
208 210 0
-21 210 0
-23 210 0
-25 210 0
199 210 0
195 210 0
-31 210 0
-35 210 0
194 210 0
-19 210 0
-15 210 0
207 210 0
193 210 0
33 27 29 17 21 23 25 31 35 19 15 -193 -194 -195 -199 -207 -208 -210 0
33 27 29 17 21 23 25 31 35 19 15 -193 -194 -195 -199 202 -207 -208 -210 0
33 27 29 17 21 23 25 31 35 19 15 -193 -194 -195 -199 -207 -208 209 -210 0
33 27 29 17 21 23 25 31 35 19 15 -193 -194 -195 -199 202 -207 -208 209 -210 0
33 27 29 17 21 23 25 31 35 19 15 -193 -194 -195 -199 201 -207 -208 -210 0
33 27 29 17 21 23 25 31 35 19 15 -193 -194 -195 -199 201 202 -207 -208 -210 0
33 27 29 17 21 23 25 31 35 19 15 -193 -194 -195 -199 201 -207 -208 209 -210 0
33 27 29 17 21 23 25 31 35 19 15 -193 -194 -195 -199 201 202 -207 -208 209 -210 0
37 211 0
210 211 0
-37 -210 -211 0
31 212 0
200 212 0
-31 -200 -212 0
-27 -202 213 0
-33 213 0
-27 213 0
-29 213 0
-15 -17 213 0
-17 213 0
-25 -201 213 0
-31 -200 213 0
-21 213 0
-23 213 0
-25 213 0
199 213 0
195 213 0
-31 213 0
194 213 0
-19 213 0
-15 213 0
207 213 0
193 213 0
33 27 29 17 21 23 25 31 19 15 -193 -194 -195 -199 -207 -213 0
33 27 29 17 21 23 25 31 19 15 -193 -194 -195 -199 202 -207 -213 0
33 27 29 17 21 23 25 31 19 15 -193 -194 -195 -199 201 -207 -213 0
33 27 29 17 21 23 25 31 19 15 -193 -194 -195 -199 201 202 -207 -213 0
33 27 29 17 21 23 25 31 19 15 -193 -194 -195 -199 200 -207 -213 0
33 27 29 17 21 23 25 31 19 15 -193 -194 -195 -199 200 202 -207 -213 0
33 27 29 17 21 23 25 31 19 15 -193 -194 -195 -199 200 201 -207 -213 0
33 27 29 17 21 23 25 31 19 15 -193 -194 -195 -199 200 201 202 -207 -213 0
-27 -202 214 0
-33 214 0
-27 214 0
-29 214 0
-15 -17 214 0
-17 214 0
-35 -213 214 0
-25 -201 214 0
212 214 0
-21 214 0
-23 214 0
-25 214 0
199 214 0
211 214 0
-37 214 0
195 214 0
-31 214 0
-35 214 0
194 214 0
-19 214 0
-15 214 0
207 214 0
193 214 0
33 27 29 17 21 23 25 37 31 35 19 15 -193 -194 -195 -199 -207 -211 -212 -214 0
33 27 29 17 21 23 25 37 31 35 19 15 -193 -194 -195 -199 202 -207 -211 -212 -214 0
33 27 29 17 21 23 25 37 31 35 19 15 -193 -194 -195 -199 -207 -211 -212 213 -214 0
33 27 29 17 21 23 25 37 31 35 19 15 -193 -194 -195 -199 202 -207 -211 -212 213 -214 0
33 27 29 17 21 23 25 37 31 35 19 15 -193 -194 -195 -199 201 -207 -211 -212 -214 0
33 27 29 17 21 23 25 37 31 35 19 15 -193 -194 -195 -199 201 202 -207 -211 -212 -214 0
33 27 29 17 21 23 25 37 31 35 19 15 -193 -194 -195 -199 201 -207 -211 -212 213 -214 0
33 27 29 17 21 23 25 37 31 35 19 15 -193 -194 -195 -199 201 202 -207 -211 -212 213 -214 0
39 215 0
214 215 0
-39 -214 -215 0
-27 -202 216 0
-33 216 0
-27 216 0
-29 216 0
-15 -17 216 0
-17 216 0
-35 -213 216 0
-25 -201 216 0
212 216 0
-21 216 0
-23 216 0
-25 216 0
199 216 0
211 216 0
215 216 0
-37 216 0
195 216 0
-39 216 0
-31 216 0
-35 216 0
194 216 0
-19 216 0
-15 216 0
207 216 0
193 216 0
33 27 29 17 21 23 25 37 39 31 35 19 15 -193 -194 -195 -199 -207 -211 -212 -215 -216 0
33 27 29 17 21 23 25 37 39 31 35 19 15 -193 -194 -195 -199 202 -207 -211 -212 -215 -216 0
33 27 29 17 21 23 25 37 39 31 35 19 15 -193 -194 -195 -199 -207 -211 -212 213 -215 -216 0
33 27 29 17 21 23 25 37 39 31 35 19 15 -193 -194 -195 -199 202 -207 -211 -212 213 -215 -216 0
33 27 29 17 21 23 25 37 39 31 35 19 15 -193 -194 -195 -199 201 -207 -211 -212 -215 -216 0
33 27 29 17 21 23 25 37 39 31 35 19 15 -193 -194 -195 -199 201 202 -207 -211 -212 -215 -216 0
33 27 29 17 21 23 25 37 39 31 35 19 15 -193 -194 -195 -199 201 -207 -211 -212 213 -215 -216 0
33 27 29 17 21 23 25 37 39 31 35 19 15 -193 -194 -195 -199 201 202 -207 -211 -212 213 -215 -216 0
41 217 0
216 217 0
-41 -216 -217 0
37 218 0
210 218 0
-37 -210 -218 0
31 219 0
200 219 0
-31 -200 -219 0
25 220 0
201 220 0
-25 -201 -220 0
-27 -202 221 0
-33 221 0
-27 221 0
-29 221 0
-15 -17 221 0
-17 221 0
-25 -201 221 0
-31 -200 221 0
-21 221 0
-23 221 0
-25 221 0
199 221 0
195 221 0
-31 221 0
194 221 0
-19 221 0
-15 221 0
207 221 0
193 221 0
33 27 29 17 21 23 25 31 19 15 -193 -194 -195 -199 -207 -221 0
33 27 29 17 21 23 25 31 19 15 -193 -194 -195 -199 202 -207 -221 0
33 27 29 17 21 23 25 31 19 15 -193 -194 -195 -199 201 -207 -221 0
33 27 29 17 21 23 25 31 19 15 -193 -194 -195 -199 201 202 -207 -221 0
33 27 29 17 21 23 25 31 19 15 -193 -194 -195 -199 200 -207 -221 0
33 27 29 17 21 23 25 31 19 15 -193 -194 -195 -199 200 202 -207 -221 0
33 27 29 17 21 23 25 31 19 15 -193 -194 -195 -199 200 201 -207 -221 0
33 27 29 17 21 23 25 31 19 15 -193 -194 -195 -199 200 201 202 -207 -221 0
-27 -202 222 0
-33 222 0
-27 222 0
-29 222 0
-15 -17 222 0
-17 222 0
-35 -221 222 0
-25 -201 222 0
219 222 0
-21 222 0
-23 222 0
-25 222 0
199 222 0
218 222 0
217 222 0
215 222 0
-37 222 0
195 222 0
-39 222 0
-41 222 0
-31 222 0
-35 222 0
194 222 0
-19 222 0
-15 222 0
207 222 0
193 222 0
33 27 29 17 21 23 25 37 39 41 31 35 19 15 -193 -194 -195 -199 -207 -215 -217 -218 -219 -222 0
33 27 29 17 21 23 25 37 39 41 31 35 19 15 -193 -194 -195 -199 202 -207 -215 -217 -218 -219 -222 0
33 27 29 17 21 23 25 37 39 41 31 35 19 15 -193 -194 -195 -199 -207 -215 -217 -218 -219 221 -222 0
33 27 29 17 21 23 25 37 39 41 31 35 19 15 -193 -194 -195 -199 202 -207 -215 -217 -218 -219 221 -222 0
33 27 29 17 21 23 25 37 39 41 31 35 19 15 -193 -194 -195 -199 201 -207 -215 -217 -218 -219 -222 0
33 27 29 17 21 23 25 37 39 41 31 35 19 15 -193 -194 -195 -199 201 202 -207 -215 -217 -218 -219 -222 0
33 27 29 17 21 23 25 37 39 41 31 35 19 15 -193 -194 -195 -199 201 -207 -215 -217 -218 -219 221 -222 0
33 27 29 17 21 23 25 37 39 41 31 35 19 15 -193 -194 -195 -199 201 202 -207 -215 -217 -218 -219 221 -222 0
-27 -202 223 0
-33 223 0
-27 223 0
-29 223 0
-15 -17 223 0
-43 -222 223 0
-17 223 0
-35 -221 223 0
-43 223 0
220 223 0
219 223 0
-21 223 0
-23 223 0
-25 223 0
199 223 0
218 223 0
217 223 0
215 223 0
-37 223 0
195 223 0
-39 223 0
-41 223 0
-31 223 0
-35 223 0
194 223 0
-19 223 0
-15 223 0
207 223 0
193 223 0
33 27 29 17 43 21 23 25 37 39 41 31 35 19 15 -193 -194 -195 -199 -207 -215 -217 -218 -219 -220 -223 0
33 27 29 17 43 21 23 25 37 39 41 31 35 19 15 -193 -194 -195 -199 202 -207 -215 -217 -218 -219 -220 -223 0
33 27 29 17 43 21 23 25 37 39 41 31 35 19 15 -193 -194 -195 -199 -207 -215 -217 -218 -219 -220 222 -223 0
33 27 29 17 43 21 23 25 37 39 41 31 35 19 15 -193 -194 -195 -199 202 -207 -215 -217 -218 -219 -220 222 -223 0
33 27 29 17 43 21 23 25 37 39 41 31 35 19 15 -193 -194 -195 -199 -207 -215 -217 -218 -219 -220 221 -223 0
33 27 29 17 43 21 23 25 37 39 41 31 35 19 15 -193 -194 -195 -199 202 -207 -215 -217 -218 -219 -220 221 -223 0
33 27 29 17 43 21 23 25 37 39 41 31 35 19 15 -193 -194 -195 -199 -207 -215 -217 -218 -219 -220 221 222 -223 0
33 27 29 17 43 21 23 25 37 39 41 31 35 19 15 -193 -194 -195 -199 202 -207 -215 -217 -218 -219 -220 221 222 -223 0
45 -223 -224 0
-45 223 -224 0
224 -45 -223 0
45 223 224 0
45 -186 -225 0
186 224 -225 0
-45 -186 225 0
186 -224 225 0
45 224 -225 0
-45 -224 225 0
77 -225 -226 0
-77 225 -226 0
226 -77 -225 0
77 225 226 0
81 227 0
79 227 0
-81 -79 -227 0
83 -227 -228 0
-83 227 -228 0
228 -83 -227 0
83 227 228 0
-179 228 -229 0
83 179 -229 0
-179 -228 229 0
-83 179 229 0
83 228 -229 0
-83 -228 229 0
115 -229 -230 0
-115 229 -230 0
230 -115 -229 0
115 229 230 0
31 -200 -231 0
-31 200 -231 0
231 -31 -200 0
31 200 231 0
31 -186 -232 0
186 231 -232 0
-31 -186 232 0
186 -231 232 0
31 231 -232 0
-31 -231 232 0
63 -232 -233 0
-63 232 -233 0
233 -63 -232 0
63 232 233 0
37 -210 -234 0
-37 210 -234 0
234 -37 -210 0
37 210 234 0
37 -186 -235 0
186 234 -235 0
-37 -186 235 0
186 -234 235 0
37 234 -235 0
-37 -234 235 0
69 -235 -236 0
-69 235 -236 0
236 -69 -235 0
69 235 236 0
29 -198 -237 0
-29 198 -237 0
237 -29 -198 0
29 198 237 0
29 -186 -238 0
186 237 -238 0
-29 -186 238 0
186 -237 238 0
29 237 -238 0
-29 -237 238 0
61 -238 -239 0
-61 238 -239 0
239 -61 -238 0
61 238 239 0
93 240 0
91 240 0
89 240 0
81 240 0
95 240 0
97 240 0
83 240 0
79 240 0
99 240 0
87 240 0
85 240 0
-93 -91 -89 -81 -95 -97 -83 -79 -99 -87 -85 -240 0
101 -240 -241 0
-101 240 -241 0
241 -101 -240 0
101 240 241 0
-179 241 -242 0
101 179 -242 0
-179 -241 242 0
-101 179 242 0
101 241 -242 0
-101 -241 242 0
133 -242 -243 0
-133 242 -243 0
243 -133 -242 0
133 242 243 0
19 -182 -244 0
-19 182 -244 0
244 -19 -182 0
19 182 244 0
19 -186 -245 0
186 244 -245 0
-19 -186 245 0
186 -244 245 0
19 244 -245 0
-19 -244 245 0
51 -245 -246 0
-51 245 -246 0
246 -51 -245 0
51 245 246 0
91 247 0
89 247 0
81 247 0
83 247 0
79 247 0
87 247 0
85 247 0
-91 -89 -81 -83 -79 -87 -85 -247 0
93 -247 -248 0
-93 247 -248 0
248 -93 -247 0
93 247 248 0
-179 248 -249 0
93 179 -249 0
-179 -248 249 0
-93 179 249 0
93 248 -249 0
-93 -248 249 0
125 -249 -250 0
-125 249 -250 0
250 -125 -249 0
125 249 250 0
47 15 186 -251 0
-15 -47 186 -251 0
-47 15 -186 -251 0
47 -15 -186 -251 0
-15 -47 -186 251 0
47 15 -186 251 0
47 -15 186 251 0
-47 15 186 251 0
39 -214 -252 0
-39 214 -252 0
252 -39 -214 0
39 214 252 0
39 -186 -253 0
186 252 -253 0
-39 -186 253 0
186 -252 253 0
39 252 -253 0
-39 -252 253 0
71 -253 -254 0
-71 253 -254 0
254 -71 -253 0
71 253 254 0
89 255 0
81 255 0
83 255 0
79 255 0
87 255 0
85 255 0
-89 -81 -83 -79 -87 -85 -255 0
91 -255 -256 0
-91 255 -256 0
256 -91 -255 0
91 255 256 0
-179 256 -257 0
91 179 -257 0
-179 -256 257 0
-91 179 257 0
91 256 -257 0
-91 -256 257 0
123 -257 -258 0
-123 257 -258 0
258 -123 -257 0
123 257 258 0
81 259 0
83 259 0
79 259 0
-81 -83 -79 -259 0
85 -259 -260 0
-85 259 -260 0
260 -85 -259 0
85 259 260 0
-179 260 -261 0
85 179 -261 0
-179 -260 261 0
-85 179 261 0
85 260 -261 0
-85 -260 261 0
117 -261 -262 0
-117 261 -262 0
262 -117 -261 0
117 261 262 0
41 -216 -263 0
-41 216 -263 0
263 -41 -216 0
41 216 263 0
41 -186 -264 0
186 263 -264 0
-41 -186 264 0
186 -263 264 0
41 263 -264 0
-41 -263 264 0
73 -264 -265 0
-73 264 -265 0
265 -73 -264 0
73 264 265 0
93 266 0
91 266 0
89 266 0
81 266 0
95 266 0
97 266 0
83 266 0
79 266 0
87 266 0
85 266 0
-93 -91 -89 -81 -95 -97 -83 -79 -87 -85 -266 0
99 -266 -267 0
-99 266 -267 0
267 -99 -266 0
99 266 267 0
-179 267 -268 0
99 179 -268 0
-179 -267 268 0
-99 179 268 0
99 267 -268 0
-99 -267 268 0
131 -268 -269 0
-131 268 -269 0
269 -131 -268 0
131 268 269 0
93 270 0
91 270 0
89 270 0
81 270 0
95 270 0
97 270 0
83 270 0
101 270 0
79 270 0
99 270 0
87 270 0
103 270 0
85 270 0
-93 -91 -89 -81 -95 -97 -83 -101 -79 -99 -87 -103 -85 -270 0
105 -270 -271 0
-105 270 -271 0
271 -105 -270 0
105 270 271 0
-179 271 -272 0
105 179 -272 0
-179 -271 272 0
-105 179 272 0
105 271 -272 0
-105 -271 272 0
137 -272 -273 0
-137 272 -273 0
273 -137 -272 0
137 272 273 0
93 274 0
91 274 0
105 274 0
89 274 0
81 274 0
95 274 0
97 274 0
83 274 0
101 274 0
79 274 0
99 274 0
87 274 0
103 274 0
85 274 0
-93 -91 -105 -89 -81 -95 -97 -83 -101 -79 -99 -87 -103 -85 -274 0
107 -274 -275 0
-107 274 -275 0
275 -107 -274 0
107 274 275 0
-179 275 -276 0
107 179 -276 0
-179 -275 276 0
-107 179 276 0
107 275 -276 0
-107 -275 276 0
139 -276 -277 0
-139 276 -277 0
277 -139 -276 0
139 276 277 0
25 -201 -278 0
-25 201 -278 0
278 -25 -201 0
25 201 278 0
25 -186 -279 0
186 278 -279 0
-25 -186 279 0
186 -278 279 0
25 278 -279 0
-25 -278 279 0
57 -279 -280 0
-57 279 -280 0
280 -57 -279 0
57 279 280 0
-79 81 -281 0
-81 79 -281 0
-81 -79 281 0
79 81 281 0
-179 -281 -282 0
81 179 -282 0
-179 281 282 0
-81 179 282 0
81 -281 -282 0
-81 281 282 0
113 -282 -283 0
-113 282 -283 0
283 -113 -282 0
113 282 283 0
35 -221 -284 0
-35 221 -284 0
284 -35 -221 0
35 221 284 0
35 -186 -285 0
186 284 -285 0
-35 -186 285 0
186 -284 285 0
35 284 -285 0
-35 -284 285 0
67 -285 -286 0
-67 285 -286 0
286 -67 -285 0
67 285 286 0
93 287 0
91 287 0
89 287 0
81 287 0
95 287 0
97 287 0
83 287 0
101 287 0
79 287 0
99 287 0
87 287 0
85 287 0
-93 -91 -89 -81 -95 -97 -83 -101 -79 -99 -87 -85 -287 0
103 -287 -288 0
-103 287 -288 0
288 -103 -287 0
103 287 288 0
-179 288 -289 0
103 179 -289 0
-179 -288 289 0
-103 179 289 0
103 288 -289 0
-103 -288 289 0
135 -289 -290 0
-135 289 -290 0
290 -135 -289 0
135 289 290 0
43 -222 -291 0
-43 222 -291 0
291 -43 -222 0
43 222 291 0
43 -186 -292 0
186 291 -292 0
-43 -186 292 0
186 -291 292 0
43 291 -292 0
-43 -291 292 0
75 -292 -293 0
-75 292 -293 0
293 -75 -292 0
75 292 293 0
27 -202 -294 0
-27 202 -294 0
294 -27 -202 0
27 202 294 0
27 -186 -295 0
186 294 -295 0
-27 -186 295 0
186 -294 295 0
27 294 -295 0
-27 -294 295 0
59 -295 -296 0
-59 295 -296 0
296 -59 -295 0
59 295 296 0
93 297 0
91 297 0
89 297 0
81 297 0
95 297 0
83 297 0
79 297 0
87 297 0
85 297 0
-93 -91 -89 -81 -95 -83 -79 -87 -85 -297 0
97 -297 -298 0
-97 297 -298 0
298 -97 -297 0
97 297 298 0
-179 298 -299 0
97 179 -299 0
-179 -298 299 0
-97 179 299 0
97 298 -299 0
-97 -298 299 0
129 -299 -300 0
-129 299 -300 0
300 -129 -299 0
129 299 300 0
93 301 0
91 301 0
105 301 0
107 301 0
89 301 0
81 301 0
95 301 0
97 301 0
83 301 0
101 301 0
79 301 0
99 301 0
87 301 0
103 301 0
85 301 0
-93 -91 -105 -107 -89 -81 -95 -97 -83 -101 -79 -99 -87 -103 -85 -301 0
109 -301 -302 0
-109 301 -302 0
302 -109 -301 0
109 301 302 0
-179 302 -303 0
109 179 -303 0
-179 -302 303 0
-109 179 303 0
109 302 -303 0
-109 -302 303 0
141 -303 -304 0
-141 303 -304 0
304 -141 -303 0
141 303 304 0
21 -183 -305 0
-21 183 -305 0
305 -21 -183 0
21 183 305 0
21 -186 -306 0
186 305 -306 0
-21 -186 306 0
186 -305 306 0
21 305 -306 0
-21 -305 306 0
53 -306 -307 0
-53 306 -307 0
307 -53 -306 0
53 306 307 0
17 -15 -308 0
-17 15 -308 0
-15 -17 308 0
17 15 308 0
17 -186 -309 0
186 308 -309 0
-17 -186 309 0
186 -308 309 0
17 308 -309 0
-17 -308 309 0
49 -309 -310 0
-49 309 -310 0
310 -49 -309 0
49 309 310 0
-9 311 0
179 311 0
9 -179 -311 0
-1 311 -312 0
1 -311 -312 0
-1 -311 312 0
1 311 312 0
79 111 179 -313 0
79 -111 -179 -313 0
-79 -111 179 -313 0
-79 111 -179 -313 0
-79 -111 -179 313 0
-79 111 179 313 0
79 111 -179 313 0
79 -111 179 313 0
93 314 0
91 314 0
89 314 0
81 314 0
83 314 0
79 314 0
87 314 0
85 314 0
-93 -91 -89 -81 -83 -79 -87 -85 -314 0
95 -314 -315 0
-95 314 -315 0
315 -95 -314 0
95 314 315 0
-179 315 -316 0
95 179 -316 0
-179 -315 316 0
-95 179 316 0
95 315 -316 0
-95 -315 316 0
127 -316 -317 0
-127 316 -317 0
317 -127 -316 0
127 316 317 0
317 318 0
-313 318 0
-312 318 0
310 318 0
307 318 0
304 318 0
300 318 0
296 318 0
293 318 0
290 318 0
286 318 0
283 318 0
280 318 0
277 318 0
273 318 0
269 318 0
265 318 0
262 318 0
258 318 0
254 318 0
251 318 0
250 318 0
246 318 0
243 318 0
239 318 0
236 318 0
233 318 0
230 318 0
226 318 0
206 318 0
192 318 0
188 318 0
181 318 0
-181 -188 -192 -206 -226 -230 -233 -236 -239 -243 -246 -250 -251 -254 -258 -262 -265 -269 -273 -277 -280 -283 -286 -290 -293 -296 -300 -304 -307 -310 312 313 -317 -318 0
-11 -318 0
11 -176 0
